;; translated from ./conc/stateful01_safe_v1.vmt
;; original benchmark available at: https://es-static.fbk.eu/people/griggio/ic3ia/index.html
;; author: Alberto Griggio <griggio@fbk.eu>
(set-logic HORN)
(declare-fun state (Bool Bool Bool Bool Bool Bool Bool Bool Bool Bool Int Int Int Int Int Int) Bool)
(assert (forall ((|thread2.location.2| Bool) (|thread2.location.0| Bool) (|thread1.location.1| Bool) (|thread1.location.0| Bool) (|thread1.location.2| Bool) (|thread2.EVENT.2| Bool) (|thread2.EVENT.1| Bool) (|thread2.data2.next| Int) (|mb.data.next| Int) (|thread2.data2| Int) (|thread1.EVENT.2| Bool) (|thread1.EVENT.1| Bool) (|thread1.data2| Int) (|thread1.data2.next| Int) (|mb.EVENT.1| Bool) (|mb.EVENT.2| Bool) (|mb.status.1.next| Bool) (|mb.status.0.next| Bool) (|mb.EVENT.0| Bool) (|ma.EVENT.1| Bool) (|ma.EVENT.2| Bool) (|ma.EVENT.0| Bool) (|thread1.EVENT.0| Bool) (|thread2.EVENT.0| Bool) (|ma.status.1.next| Bool) (|ma.status.0.next| Bool) (|ma.data.next| Int) (|thread2.data1.next| Int) (|thread2.data1| Int) (|thread1.data1| Int) (|thread1.data1.next| Int) (|thread2.location.0.next| Bool) (|thread2.location.1.next| Bool) (|thread2.location.2.next| Bool) (|thread1.location.0.next| Bool) (|thread1.location.1.next| Bool) (|thread1.location.2.next| Bool) (|mb.status.0| Bool) (|mb.status.1| Bool) (|mb.data| Int) (|ma.status.1| Bool) (|ma.status.0| Bool) (|ma.data| Int) (|thread2.location.1| Bool)) (=> (let ((.def_12 (not mb.status.0)))
(let ((.def_10 (not mb.status.1)))
(let ((.def_48 (and .def_10 .def_12)))
(let ((.def_47 (= mb.data 10)))
(let ((.def_49 (and .def_47 .def_48)))
(let ((.def_17 (not ma.status.1)))
(let ((.def_15 (not ma.status.0)))
(let ((.def_45 (and .def_15 .def_17)))
(let ((.def_50 (and .def_45 .def_49)))
(let ((.def_44 (= ma.data 10)))
(let ((.def_51 (and .def_44 .def_50)))
(let ((.def_23 (not thread2.location.1)))
(let ((.def_21 (not thread2.location.0)))
(let ((.def_40 (and .def_21 .def_23)))
(let ((.def_26 (not thread2.location.2)))
(let ((.def_41 (and .def_26 .def_40)))
(let ((.def_52 (and .def_41 .def_51)))
(let ((.def_32 (not thread1.location.1)))
(let ((.def_30 (not thread1.location.0)))
(let ((.def_38 (and .def_30 .def_32)))
(let ((.def_35 (not thread1.location.2)))
(let ((.def_39 (and .def_35 .def_38)))
(let ((.def_53 (and .def_39 .def_52)))
(let ((.def_33 (or .def_30 .def_32)))
(let ((.def_36 (or .def_33 .def_35)))
(let ((.def_24 (or .def_21 .def_23)))
(let ((.def_27 (or .def_24 .def_26)))
(let ((.def_18 (or .def_15 .def_17)))
(let ((.def_13 (or .def_10 .def_12)))
(let ((.def_19 (and .def_13 .def_18)))
(let ((.def_28 (and .def_19 .def_27)))
(let ((.def_37 (and .def_28 .def_36)))
(let ((.def_54 (and .def_37 .def_53)))
.def_54))))))))))))))))))))))))))))))))) (state |mb.status.1| |mb.status.0| |ma.status.0| |ma.status.1| |thread2.location.0| |thread2.location.1| |thread2.location.2| |thread1.location.0| |thread1.location.1| |thread1.location.2| |ma.data| |mb.data| |thread1.data2| |thread1.data1| |thread2.data2| |thread2.data1|))))
(assert (forall ((|thread2.location.2| Bool) (|thread2.location.0| Bool) (|thread1.location.1| Bool) (|thread1.location.0| Bool) (|thread1.location.2| Bool) (|thread2.EVENT.2| Bool) (|thread2.EVENT.1| Bool) (|thread2.data2.next| Int) (|mb.data.next| Int) (|thread2.data2| Int) (|thread1.EVENT.2| Bool) (|thread1.EVENT.1| Bool) (|thread1.data2| Int) (|thread1.data2.next| Int) (|mb.EVENT.1| Bool) (|mb.EVENT.2| Bool) (|mb.status.1.next| Bool) (|mb.status.0.next| Bool) (|mb.EVENT.0| Bool) (|ma.EVENT.1| Bool) (|ma.EVENT.2| Bool) (|ma.EVENT.0| Bool) (|thread1.EVENT.0| Bool) (|thread2.EVENT.0| Bool) (|ma.status.1.next| Bool) (|ma.status.0.next| Bool) (|ma.data.next| Int) (|thread2.data1.next| Int) (|thread2.data1| Int) (|thread1.data1| Int) (|thread1.data1.next| Int) (|thread2.location.0.next| Bool) (|thread2.location.1.next| Bool) (|thread2.location.2.next| Bool) (|thread1.location.0.next| Bool) (|thread1.location.1.next| Bool) (|thread1.location.2.next| Bool) (|mb.status.0| Bool) (|mb.status.1| Bool) (|mb.data| Int) (|ma.status.1| Bool) (|ma.status.0| Bool) (|ma.data| Int) (|thread2.location.1| Bool)) (=> (and (state |mb.status.1| |mb.status.0| |ma.status.0| |ma.status.1| |thread2.location.0| |thread2.location.1| |thread2.location.2| |thread1.location.0| |thread1.location.1| |thread1.location.2| |ma.data| |mb.data| |thread1.data2| |thread1.data1| |thread2.data2| |thread2.data1|) (let ((.def_232 (not thread2.EVENT.2)))
(let ((.def_263 (and thread2.EVENT.1 .def_232)))
(let ((.def_464 (not .def_263)))
(let ((.def_463 (= mb.data thread2.data2.next)))
(let ((.def_465 (or .def_463 .def_464)))
(let ((.def_240 (and thread2.EVENT.1 thread2.EVENT.2)))
(let ((.def_461 (not .def_240)))
(let ((.def_460 (= thread2.data2 mb.data.next)))
(let ((.def_462 (or .def_460 .def_461)))
(let ((.def_466 (and .def_462 .def_465)))
(let ((.def_151 (and thread1.EVENT.1 thread1.EVENT.2)))
(let ((.def_458 (not .def_151)))
(let ((.def_457 (= thread1.data2 mb.data.next)))
(let ((.def_459 (or .def_457 .def_458)))
(let ((.def_467 (and .def_459 .def_466)))
(let ((.def_143 (not thread1.EVENT.2)))
(let ((.def_172 (and thread1.EVENT.1 .def_143)))
(let ((.def_455 (not .def_172)))
(let ((.def_454 (= mb.data thread1.data2.next)))
(let ((.def_456 (or .def_454 .def_455)))
(let ((.def_468 (and .def_456 .def_467)))
(let ((.def_58 (not mb.EVENT.2)))
(let ((.def_373 (and .def_58 mb.EVENT.1)))
(let ((.def_447 (not .def_373)))
(let ((.def_96 (not mb.status.1.next)))
(let ((.def_445 (and mb.status.0.next .def_96)))
(let ((.def_426 (= mb.data mb.data.next)))
(let ((.def_12 (not mb.status.0)))
(let ((.def_10 (not mb.status.1)))
(let ((.def_48 (and .def_10 .def_12)))
(let ((.def_440 (and .def_48 .def_426)))
(let ((.def_446 (and .def_440 .def_445)))
(let ((.def_448 (or .def_446 .def_447)))
(let ((.def_61 (not mb.EVENT.1)))
(let ((.def_387 (and mb.EVENT.0 .def_61)))
(let ((.def_388 (and .def_58 .def_387)))
(let ((.def_449 (or .def_388 .def_448)))
(let ((.def_56 (not mb.EVENT.0)))
(let ((.def_368 (and .def_56 .def_61)))
(let ((.def_369 (and .def_58 .def_368)))
(let ((.def_442 (not .def_369)))
(let ((.def_441 (and mb.status.1.next .def_440)))
(let ((.def_443 (or .def_441 .def_442)))
(let ((.def_444 (or .def_388 .def_443)))
(let ((.def_450 (and .def_444 .def_449)))
(let ((.def_371 (and mb.EVENT.2 .def_61)))
(let ((.def_437 (not .def_371)))
(let ((.def_94 (not mb.status.0.next)))
(let ((.def_431 (and .def_94 .def_96)))
(let ((.def_436 (and mb.status.1 .def_431)))
(let ((.def_438 (or .def_436 .def_437)))
(let ((.def_439 (or .def_388 .def_438)))
(let ((.def_451 (and .def_439 .def_450)))
(let ((.def_375 (and mb.EVENT.2 mb.EVENT.1)))
(let ((.def_433 (not .def_375)))
(let ((.def_430 (and .def_10 mb.status.0)))
(let ((.def_432 (and .def_430 .def_431)))
(let ((.def_434 (or .def_432 .def_433)))
(let ((.def_435 (or .def_388 .def_434)))
(let ((.def_452 (and .def_435 .def_451)))
(let ((.def_428 (not .def_388)))
(let ((.def_423 (= mb.status.0 mb.status.0.next)))
(let ((.def_422 (= mb.status.1 mb.status.1.next)))
(let ((.def_424 (and .def_422 .def_423)))
(let ((.def_427 (and .def_424 .def_426)))
(let ((.def_429 (or .def_427 .def_428)))
(let ((.def_453 (and .def_429 .def_452)))
(let ((.def_469 (and .def_453 .def_468)))
(let ((.def_411 (or .def_369 .def_371)))
(let ((.def_73 (not ma.EVENT.1)))
(let ((.def_310 (and ma.EVENT.2 .def_73)))
(let ((.def_70 (not ma.EVENT.0)))
(let ((.def_307 (and .def_70 .def_73)))
(let ((.def_68 (not ma.EVENT.2)))
(let ((.def_308 (and .def_68 .def_307)))
(let ((.def_409 (or .def_308 .def_310)))
(let ((.def_89 (not thread1.EVENT.1)))
(let ((.def_136 (and thread1.EVENT.0 .def_89)))
(let ((.def_144 (and .def_136 .def_143)))
(let ((.def_392 (or .def_144 .def_151)))
(let ((.def_393 (or .def_172 .def_392)))
(let ((.def_87 (not thread1.EVENT.0)))
(let ((.def_179 (and .def_87 .def_89)))
(let ((.def_180 (and thread1.EVENT.2 .def_179)))
(let ((.def_407 (or .def_180 .def_393)))
(let ((.def_189 (and .def_143 .def_179)))
(let ((.def_408 (or .def_189 .def_407)))
(let ((.def_410 (or .def_408 .def_409)))
(let ((.def_412 (or .def_410 .def_411)))
(let ((.def_413 (not .def_412)))
(let ((.def_82 (not thread2.EVENT.1)))
(let ((.def_225 (and thread2.EVENT.0 .def_82)))
(let ((.def_227 (and .def_225 thread2.EVENT.2)))
(let ((.def_414 (or .def_227 .def_413)))
(let ((.def_233 (and .def_225 .def_232)))
(let ((.def_390 (or .def_233 .def_240)))
(let ((.def_391 (or .def_263 .def_390)))
(let ((.def_80 (not thread2.EVENT.0)))
(let ((.def_270 (and .def_80 .def_82)))
(let ((.def_271 (and thread2.EVENT.2 .def_270)))
(let ((.def_401 (or .def_271 .def_391)))
(let ((.def_280 (and .def_232 .def_270)))
(let ((.def_402 (or .def_280 .def_401)))
(let ((.def_314 (and .def_68 ma.EVENT.1)))
(let ((.def_312 (and ma.EVENT.2 ma.EVENT.1)))
(let ((.def_382 (or .def_312 .def_314)))
(let ((.def_403 (or .def_382 .def_402)))
(let ((.def_395 (or .def_373 .def_375)))
(let ((.def_404 (or .def_395 .def_403)))
(let ((.def_405 (not .def_404)))
(let ((.def_138 (and .def_136 thread1.EVENT.2)))
(let ((.def_406 (or .def_138 .def_405)))
(let ((.def_415 (and .def_406 .def_414)))
(let ((.def_396 (or .def_371 .def_395)))
(let ((.def_397 (or .def_369 .def_396)))
(let ((.def_394 (or .def_391 .def_393)))
(let ((.def_398 (or .def_394 .def_397)))
(let ((.def_399 (not .def_398)))
(let ((.def_340 (and ma.EVENT.0 .def_73)))
(let ((.def_341 (and .def_68 .def_340)))
(let ((.def_400 (or .def_341 .def_399)))
(let ((.def_416 (and .def_400 .def_415)))
(let ((.def_383 (or .def_310 .def_382)))
(let ((.def_384 (or .def_308 .def_383)))
(let ((.def_379 (or .def_233 .def_271)))
(let ((.def_380 (or .def_280 .def_379)))
(let ((.def_377 (or .def_144 .def_180)))
(let ((.def_378 (or .def_189 .def_377)))
(let ((.def_381 (or .def_378 .def_380)))
(let ((.def_385 (or .def_381 .def_384)))
(let ((.def_386 (not .def_385)))
(let ((.def_389 (or .def_386 .def_388)))
(let ((.def_417 (and .def_389 .def_416)))
(let ((.def_376 (= .def_240 .def_375)))
(let ((.def_418 (and .def_376 .def_417)))
(let ((.def_374 (= .def_263 .def_373)))
(let ((.def_419 (and .def_374 .def_418)))
(let ((.def_372 (= .def_151 .def_371)))
(let ((.def_420 (and .def_372 .def_419)))
(let ((.def_370 (= .def_172 .def_369)))
(let ((.def_421 (and .def_370 .def_420)))
(let ((.def_470 (and .def_421 .def_469)))
(let ((.def_361 (not .def_314)))
(let ((.def_101 (not ma.status.1.next)))
(let ((.def_359 (and ma.status.0.next .def_101)))
(let ((.def_338 (= ma.data ma.data.next)))
(let ((.def_17 (not ma.status.1)))
(let ((.def_15 (not ma.status.0)))
(let ((.def_45 (and .def_15 .def_17)))
(let ((.def_354 (and .def_45 .def_338)))
(let ((.def_360 (and .def_354 .def_359)))
(let ((.def_362 (or .def_360 .def_361)))
(let ((.def_363 (or .def_341 .def_362)))
(let ((.def_356 (not .def_308)))
(let ((.def_355 (and ma.status.1.next .def_354)))
(let ((.def_357 (or .def_355 .def_356)))
(let ((.def_358 (or .def_341 .def_357)))
(let ((.def_364 (and .def_358 .def_363)))
(let ((.def_351 (not .def_310)))
(let ((.def_99 (not ma.status.0.next)))
(let ((.def_345 (and .def_99 .def_101)))
(let ((.def_350 (and ma.status.1 .def_345)))
(let ((.def_352 (or .def_350 .def_351)))
(let ((.def_353 (or .def_341 .def_352)))
(let ((.def_365 (and .def_353 .def_364)))
(let ((.def_347 (not .def_312)))
(let ((.def_344 (and ma.status.0 .def_17)))
(let ((.def_346 (and .def_344 .def_345)))
(let ((.def_348 (or .def_346 .def_347)))
(let ((.def_349 (or .def_341 .def_348)))
(let ((.def_366 (and .def_349 .def_365)))
(let ((.def_342 (not .def_341)))
(let ((.def_336 (= ma.status.0 ma.status.0.next)))
(let ((.def_335 (= ma.status.1 ma.status.1.next)))
(let ((.def_337 (and .def_335 .def_336)))
(let ((.def_339 (and .def_337 .def_338)))
(let ((.def_343 (or .def_339 .def_342)))
(let ((.def_367 (and .def_343 .def_366)))
(let ((.def_471 (and .def_367 .def_470)))
(let ((.def_330 (not .def_280)))
(let ((.def_329 (= ma.data thread2.data1.next)))
(let ((.def_331 (or .def_329 .def_330)))
(let ((.def_327 (not .def_271)))
(let ((.def_326 (= thread2.data1 ma.data.next)))
(let ((.def_328 (or .def_326 .def_327)))
(let ((.def_332 (and .def_328 .def_331)))
(let ((.def_324 (not .def_180)))
(let ((.def_323 (= thread1.data1 ma.data.next)))
(let ((.def_325 (or .def_323 .def_324)))
(let ((.def_333 (and .def_325 .def_332)))
(let ((.def_320 (not .def_189)))
(let ((.def_319 (= ma.data thread1.data1.next)))
(let ((.def_321 (or .def_319 .def_320)))
(let ((.def_334 (and .def_321 .def_333)))
(let ((.def_472 (and .def_334 .def_471)))
(let ((.def_315 (= .def_280 .def_314)))
(let ((.def_313 (= .def_271 .def_312)))
(let ((.def_316 (and .def_313 .def_315)))
(let ((.def_311 (= .def_180 .def_310)))
(let ((.def_317 (and .def_311 .def_316)))
(let ((.def_309 (= .def_189 .def_308)))
(let ((.def_318 (and .def_309 .def_317)))
(let ((.def_473 (and .def_318 .def_472)))
(let ((.def_23 (not thread2.location.1)))
(let ((.def_21 (not thread2.location.0)))
(let ((.def_40 (and .def_21 .def_23)))
(let ((.def_296 (and thread2.location.2 .def_40)))
(let ((.def_297 (not .def_296)))
(let ((.def_291 (* (- 1) thread2.data1.next)))
(let ((.def_292 (+ thread2.data1 .def_291)))
(let ((.def_293 (= .def_292 (- 5))))
(let ((.def_294 (and .def_233 .def_293)))
(let ((.def_107 (not thread2.location.0.next)))
(let ((.def_285 (and thread2.location.1.next .def_107)))
(let ((.def_110 (not thread2.location.2.next)))
(let ((.def_286 (and .def_110 .def_285)))
(let ((.def_295 (and .def_286 .def_294)))
(let ((.def_298 (or .def_295 .def_297)))
(let ((.def_299 (or .def_227 .def_298)))
(let ((.def_26 (not thread2.location.2)))
(let ((.def_41 (and .def_26 .def_40)))
(let ((.def_282 (not .def_41)))
(let ((.def_105 (not thread2.location.1.next)))
(let ((.def_278 (and .def_105 .def_107)))
(let ((.def_279 (and thread2.location.2.next .def_278)))
(let ((.def_281 (and .def_279 .def_280)))
(let ((.def_283 (or .def_281 .def_282)))
(let ((.def_284 (or .def_227 .def_283)))
(let ((.def_300 (and .def_284 .def_299)))
(let ((.def_273 (and .def_21 thread2.location.1)))
(let ((.def_274 (and .def_26 .def_273)))
(let ((.def_275 (not .def_274)))
(let ((.def_269 (and thread2.location.1.next thread2.location.2.next)))
(let ((.def_272 (and .def_269 .def_271)))
(let ((.def_276 (or .def_272 .def_275)))
(let ((.def_277 (or .def_227 .def_276)))
(let ((.def_301 (and .def_277 .def_300)))
(let ((.def_265 (and thread2.location.1 thread2.location.2)))
(let ((.def_266 (not .def_265)))
(let ((.def_247 (and .def_105 thread2.location.0.next)))
(let ((.def_262 (and .def_110 .def_247)))
(let ((.def_264 (and .def_262 .def_263)))
(let ((.def_267 (or .def_264 .def_266)))
(let ((.def_268 (or .def_227 .def_267)))
(let ((.def_302 (and .def_268 .def_301)))
(let ((.def_242 (and thread2.location.0 .def_23)))
(let ((.def_258 (and .def_26 .def_242)))
(let ((.def_259 (not .def_258)))
(let ((.def_253 (* (- 1) thread2.data2.next)))
(let ((.def_254 (+ thread2.data2 .def_253)))
(let ((.def_255 (= .def_254 6)))
(let ((.def_256 (and .def_233 .def_255)))
(let ((.def_248 (and thread2.location.2.next .def_247)))
(let ((.def_257 (and .def_248 .def_256)))
(let ((.def_260 (or .def_257 .def_259)))
(let ((.def_261 (or .def_227 .def_260)))
(let ((.def_303 (and .def_261 .def_302)))
(let ((.def_243 (and thread2.location.2 .def_242)))
(let ((.def_244 (not .def_243)))
(let ((.def_230 (and thread2.location.1.next thread2.location.0.next)))
(let ((.def_231 (and .def_110 .def_230)))
(let ((.def_241 (and .def_231 .def_240)))
(let ((.def_245 (or .def_241 .def_244)))
(let ((.def_246 (or .def_227 .def_245)))
(let ((.def_304 (and .def_246 .def_303)))
(let ((.def_235 (and thread2.location.0 thread2.location.1)))
(let ((.def_236 (and .def_26 .def_235)))
(let ((.def_237 (not .def_236)))
(let ((.def_234 (and .def_231 .def_233)))
(let ((.def_238 (or .def_234 .def_237)))
(let ((.def_239 (or .def_227 .def_238)))
(let ((.def_305 (and .def_239 .def_304)))
(let ((.def_228 (not .def_227)))
(let ((.def_222 (= thread2.data1 thread2.data1.next)))
(let ((.def_219 (= thread2.data2 thread2.data2.next)))
(let ((.def_223 (and .def_219 .def_222)))
(let ((.def_215 (= thread2.location.0 thread2.location.0.next)))
(let ((.def_213 (= thread2.location.1 thread2.location.1.next)))
(let ((.def_212 (= thread2.location.2 thread2.location.2.next)))
(let ((.def_214 (and .def_212 .def_213)))
(let ((.def_216 (and .def_214 .def_215)))
(let ((.def_224 (and .def_216 .def_223)))
(let ((.def_229 (or .def_224 .def_228)))
(let ((.def_306 (and .def_229 .def_305)))
(let ((.def_474 (and .def_306 .def_473)))
(let ((.def_32 (not thread1.location.1)))
(let ((.def_30 (not thread1.location.0)))
(let ((.def_38 (and .def_30 .def_32)))
(let ((.def_201 (and thread1.location.2 .def_38)))
(let ((.def_202 (not .def_201)))
(let ((.def_196 (* (- 1) thread1.data1.next)))
(let ((.def_197 (+ thread1.data1 .def_196)))
(let ((.def_198 (= .def_197 (- 1))))
(let ((.def_199 (and .def_144 .def_198)))
(let ((.def_116 (not thread1.location.0.next)))
(let ((.def_194 (and thread1.location.1.next .def_116)))
(let ((.def_119 (not thread1.location.2.next)))
(let ((.def_195 (and .def_119 .def_194)))
(let ((.def_200 (and .def_195 .def_199)))
(let ((.def_203 (or .def_200 .def_202)))
(let ((.def_204 (or .def_138 .def_203)))
(let ((.def_35 (not thread1.location.2)))
(let ((.def_39 (and .def_35 .def_38)))
(let ((.def_191 (not .def_39)))
(let ((.def_114 (not thread1.location.1.next)))
(let ((.def_187 (and .def_114 .def_116)))
(let ((.def_188 (and thread1.location.2.next .def_187)))
(let ((.def_190 (and .def_188 .def_189)))
(let ((.def_192 (or .def_190 .def_191)))
(let ((.def_193 (or .def_138 .def_192)))
(let ((.def_205 (and .def_193 .def_204)))
(let ((.def_182 (and .def_30 thread1.location.1)))
(let ((.def_183 (and .def_35 .def_182)))
(let ((.def_184 (not .def_183)))
(let ((.def_178 (and thread1.location.1.next thread1.location.2.next)))
(let ((.def_181 (and .def_178 .def_180)))
(let ((.def_185 (or .def_181 .def_184)))
(let ((.def_186 (or .def_138 .def_185)))
(let ((.def_206 (and .def_186 .def_205)))
(let ((.def_174 (and thread1.location.1 thread1.location.2)))
(let ((.def_175 (not .def_174)))
(let ((.def_158 (and .def_114 thread1.location.0.next)))
(let ((.def_171 (and .def_119 .def_158)))
(let ((.def_173 (and .def_171 .def_172)))
(let ((.def_176 (or .def_173 .def_175)))
(let ((.def_177 (or .def_138 .def_176)))
(let ((.def_207 (and .def_177 .def_206)))
(let ((.def_153 (and thread1.location.0 .def_32)))
(let ((.def_167 (and .def_35 .def_153)))
(let ((.def_168 (not .def_167)))
(let ((.def_162 (* (- 1) thread1.data2.next)))
(let ((.def_163 (+ thread1.data2 .def_162)))
(let ((.def_164 (= .def_163 (- 1))))
(let ((.def_165 (and .def_144 .def_164)))
(let ((.def_159 (and thread1.location.2.next .def_158)))
(let ((.def_166 (and .def_159 .def_165)))
(let ((.def_169 (or .def_166 .def_168)))
(let ((.def_170 (or .def_138 .def_169)))
(let ((.def_208 (and .def_170 .def_207)))
(let ((.def_154 (and thread1.location.2 .def_153)))
(let ((.def_155 (not .def_154)))
(let ((.def_141 (and thread1.location.1.next thread1.location.0.next)))
(let ((.def_142 (and .def_119 .def_141)))
(let ((.def_152 (and .def_142 .def_151)))
(let ((.def_156 (or .def_152 .def_155)))
(let ((.def_157 (or .def_138 .def_156)))
(let ((.def_209 (and .def_157 .def_208)))
(let ((.def_146 (and thread1.location.0 thread1.location.1)))
(let ((.def_147 (and .def_35 .def_146)))
(let ((.def_148 (not .def_147)))
(let ((.def_145 (and .def_142 .def_144)))
(let ((.def_149 (or .def_145 .def_148)))
(let ((.def_150 (or .def_138 .def_149)))
(let ((.def_210 (and .def_150 .def_209)))
(let ((.def_139 (not .def_138)))
(let ((.def_133 (= thread1.data1 thread1.data1.next)))
(let ((.def_130 (= thread1.data2 thread1.data2.next)))
(let ((.def_134 (and .def_130 .def_133)))
(let ((.def_126 (= thread1.location.0 thread1.location.0.next)))
(let ((.def_124 (= thread1.location.1 thread1.location.1.next)))
(let ((.def_123 (= thread1.location.2 thread1.location.2.next)))
(let ((.def_125 (and .def_123 .def_124)))
(let ((.def_127 (and .def_125 .def_126)))
(let ((.def_135 (and .def_127 .def_134)))
(let ((.def_140 (or .def_135 .def_139)))
(let ((.def_211 (and .def_140 .def_210)))
(let ((.def_475 (and .def_211 .def_474)))
(let ((.def_117 (or .def_114 .def_116)))
(let ((.def_120 (or .def_117 .def_119)))
(let ((.def_108 (or .def_105 .def_107)))
(let ((.def_111 (or .def_108 .def_110)))
(let ((.def_102 (or .def_99 .def_101)))
(let ((.def_97 (or .def_94 .def_96)))
(let ((.def_103 (and .def_97 .def_102)))
(let ((.def_112 (and .def_103 .def_111)))
(let ((.def_121 (and .def_112 .def_120)))
(let ((.def_90 (or .def_87 .def_89)))
(let ((.def_83 (or .def_80 .def_82)))
(let ((.def_74 (or .def_70 .def_73)))
(let ((.def_75 (or ma.EVENT.2 .def_74)))
(let ((.def_71 (or .def_68 .def_70)))
(let ((.def_76 (and .def_71 .def_75)))
(let ((.def_62 (or .def_56 .def_61)))
(let ((.def_63 (or mb.EVENT.2 .def_62)))
(let ((.def_59 (or .def_56 .def_58)))
(let ((.def_64 (and .def_59 .def_63)))
(let ((.def_13 (or .def_10 .def_12)))
(let ((.def_65 (and .def_13 .def_64)))
(let ((.def_18 (or .def_15 .def_17)))
(let ((.def_66 (and .def_18 .def_65)))
(let ((.def_77 (and .def_66 .def_76)))
(let ((.def_24 (or .def_21 .def_23)))
(let ((.def_27 (or .def_24 .def_26)))
(let ((.def_78 (and .def_27 .def_77)))
(let ((.def_84 (and .def_78 .def_83)))
(let ((.def_33 (or .def_30 .def_32)))
(let ((.def_36 (or .def_33 .def_35)))
(let ((.def_85 (and .def_36 .def_84)))
(let ((.def_91 (and .def_85 .def_90)))
(let ((.def_19 (and .def_13 .def_18)))
(let ((.def_28 (and .def_19 .def_27)))
(let ((.def_37 (and .def_28 .def_36)))
(let ((.def_92 (and .def_37 .def_91)))
(let ((.def_122 (and .def_92 .def_121)))
(let ((.def_476 (and .def_122 .def_475)))
.def_476)))))))))))))))))))))))))))))))))))))))))))))))))))))))))))))))))))))))))))))))))))))))))))))))))))))))))))))))))))))))))))))))))))))))))))))))))))))))))))))))))))))))))))))))))))))))))))))))))))))))))))))))))))))))))))))))))))))))))))))))))))))))))))))))))))))))))))))))))))))))))))))))))))))))))))))))))))))))))))))))))))))))))))))))))))))))))))))))))))))))))))))))))))))))))))))))))))))))))))))))))))))) (state |mb.status.1.next| |mb.status.0.next| |ma.status.0.next| |ma.status.1.next| |thread2.location.0.next| |thread2.location.1.next| |thread2.location.2.next| |thread1.location.0.next| |thread1.location.1.next| |thread1.location.2.next| |ma.data.next| |mb.data.next| |thread1.data2.next| |thread1.data1.next| |thread2.data2.next| |thread2.data1.next|))))
(assert (forall ((|thread2.location.2| Bool) (|thread2.location.0| Bool) (|thread1.location.1| Bool) (|thread1.location.0| Bool) (|thread1.location.2| Bool) (|thread2.EVENT.2| Bool) (|thread2.EVENT.1| Bool) (|thread2.data2.next| Int) (|mb.data.next| Int) (|thread2.data2| Int) (|thread1.EVENT.2| Bool) (|thread1.EVENT.1| Bool) (|thread1.data2| Int) (|thread1.data2.next| Int) (|mb.EVENT.1| Bool) (|mb.EVENT.2| Bool) (|mb.status.1.next| Bool) (|mb.status.0.next| Bool) (|mb.EVENT.0| Bool) (|ma.EVENT.1| Bool) (|ma.EVENT.2| Bool) (|ma.EVENT.0| Bool) (|thread1.EVENT.0| Bool) (|thread2.EVENT.0| Bool) (|ma.status.1.next| Bool) (|ma.status.0.next| Bool) (|ma.data.next| Int) (|thread2.data1.next| Int) (|thread2.data1| Int) (|thread1.data1| Int) (|thread1.data1.next| Int) (|thread2.location.0.next| Bool) (|thread2.location.1.next| Bool) (|thread2.location.2.next| Bool) (|thread1.location.0.next| Bool) (|thread1.location.1.next| Bool) (|thread1.location.2.next| Bool) (|mb.status.0| Bool) (|mb.status.1| Bool) (|mb.data| Int) (|ma.status.1| Bool) (|ma.status.0| Bool) (|ma.data| Int) (|thread2.location.1| Bool)) (=> (state |mb.status.1| |mb.status.0| |ma.status.0| |ma.status.1| |thread2.location.0| |thread2.location.1| |thread2.location.2| |thread1.location.0| |thread1.location.1| |thread1.location.2| |ma.data| |mb.data| |thread1.data2| |thread1.data1| |thread2.data2| |thread2.data1|) (let ((.def_482 (= mb.data 5)))
(let ((.def_483 (not .def_482)))
(let ((.def_479 (= ma.data 16)))
(let ((.def_480 (not .def_479)))
(let ((.def_235 (and thread2.location.0 thread2.location.1)))
(let ((.def_26 (not thread2.location.2)))
(let ((.def_236 (and .def_26 .def_235)))
(let ((.def_146 (and thread1.location.0 thread1.location.1)))
(let ((.def_35 (not thread1.location.2)))
(let ((.def_147 (and .def_35 .def_146)))
(let ((.def_477 (and .def_147 .def_236)))
(let ((.def_481 (and .def_477 .def_480)))
(let ((.def_484 (and .def_481 .def_483)))
(let ((.def_485 (not .def_484)))
.def_485)))))))))))))))))
(check-sat)
